
List of user-set options:

                                    Name   Value                used
                   hessian_approximation = limited-memory        yes
                           linear_solver = ma57                  yes
                  ma57_automatic_scaling = yes                   yes
                                max_iter = 150                   yes
                             mu_strategy = adaptive              yes
                             output_file = SPARTAN-CombinedIPOPTinfo.txt  yes
                             print_level = 5                     yes
                      print_user_options = yes                   yes
                                     tol = 1e-007                yes
This is Ipopt version 3.11.0, running with linear solver ma57.

Number of nonzeros in equality constraint Jacobian...:   295234
Number of nonzeros in inequality constraint Jacobian.:    44449
Number of nonzeros in Lagrangian Hessian.............:        0

Total number of variables............................:    20384
                     variables with only lower bounds:        0
                variables with lower and upper bounds:    20384
                     variables with only upper bounds:        0
Total number of equality constraints.................:    16037
Total number of inequality constraints...............:     3091
        inequality constraints with only lower bounds:        0
   inequality constraints with lower and upper bounds:     3091
        inequality constraints with only upper bounds:        0

iter    objective    inf_pr   inf_du lg(mu)  ||d||  lg(rg) alpha_du alpha_pr  ls
   0 -1.1502375e+002 1.22e-001 1.00e+002   0.0 0.00e+000    -  0.00e+000 0.00e+000   0
   1 -1.1536032e+002 8.34e-002 6.80e+001  -4.5 8.22e-001    -  4.45e-001 3.17e-001h  1
   2 -1.1616788e+002 6.06e-002 4.82e+001  -4.7 4.67e-001    -  3.33e-001 2.74e-001h  1
   3 -1.1606418e+002 5.69e-002 4.54e+001  -4.9 2.99e-001    -  6.54e-001 6.07e-002h  1
   4 -1.1532857e+002 2.62e-002 2.19e+001  -5.3 3.39e-001    -  4.13e-001 5.39e-001h  1
   5 -1.1539674e+002 1.69e-002 1.38e+001  -5.6 4.33e-001    -  6.95e-001 3.57e-001h  1
   6 -1.1601789e+002 8.74e-003 1.59e+001  -6.1 8.43e-001    -  3.72e-001 4.81e-001h  1
   7 -1.1602953e+002 8.69e-003 1.61e+001  -6.3 9.78e-001    -  2.69e-001 6.80e-003h  1
   8 -1.1603006e+002 8.64e-003 8.24e+001  -6.4 4.81e-001    -  6.60e-001 5.06e-003h  1
   9 -1.1603446e+002 8.51e-003 9.06e+001  -6.9 1.02e+000    -  2.63e-001 1.57e-002h  1
iter    objective    inf_pr   inf_du lg(mu)  ||d||  lg(rg) alpha_du alpha_pr  ls
  10 -1.1496619e+002 7.57e-003 8.55e+001  -3.1 3.37e+000    -  2.63e-001 1.10e-001f  1
  11 -1.1073121e+002 7.53e-003 8.46e+001  -1.3 2.88e+002    -  5.65e-003 6.55e-003f  1
  12 -1.0620261e+002 7.39e-003 8.34e+001  -1.3 1.85e+002    -  7.81e-003 9.98e-003f  1
  13 -9.5997062e+001 3.46e-002 9.43e+001  -1.3 1.29e+002    -  1.32e-002 3.20e-002f  1
  14 -9.1760588e+001 3.37e-002 8.52e+001  -1.3 8.11e+001    -  2.00e-002 2.70e-002f  1
  15 -8.2023590e+001 3.09e-002 8.54e+001  -1.3 6.67e+001    -  4.03e-002 8.22e-002f  1
  16 -7.6852725e+001 2.90e-002 6.95e+001  -1.3 5.03e+001    -  1.40e-001 6.28e-002f  1
  17 -5.7490524e+001 2.20e-002 6.66e+001  -1.3 4.42e+001    -  2.04e-001 2.44e-001f  1
  18 -2.1252672e+001 1.48e-001 4.84e+002  -1.3 5.32e+001    -  7.67e-002 7.80e-001f  1
  19 -1.6159358e+001 8.18e-002 3.98e+002  -1.3 4.88e+001    -  2.45e-001 4.47e-001h  1
iter    objective    inf_pr   inf_du lg(mu)  ||d||  lg(rg) alpha_du alpha_pr  ls
  20 2.6119650e+000 1.20e-001 2.71e+002  -1.3 5.82e+001    -  6.23e-001 8.87e-001h  1
  21 4.2937411e+000 6.84e-002 2.01e+002  -1.3 3.60e+001    -  1.00e+000 9.81e-001h  1
  22 3.7952807e+000 8.34e-002 8.67e+001  -1.3 5.13e+001    -  7.54e-001 1.00e+000h  1
  23 -1.5721118e+000 5.97e-002 1.04e+002  -1.3 2.31e+001    -  7.59e-001 1.00e+000h  1
  24 4.0604234e+000 3.39e-002 1.22e+002  -1.3 2.57e+001    -  6.11e-001 1.00e+000h  1
  25 3.6085869e+000 4.64e-003 3.51e+001  -1.3 2.50e+001    -  1.00e+000 1.00e+000h  1
  26 5.4011981e+000 3.61e-003 1.15e+002  -1.3 4.25e+001    -  1.00e+000 1.00e+000H  1
  27 3.0255954e+000 1.37e-002 2.60e+001  -1.3 1.42e+001    -  1.00e+000 1.00e+000h  1
  28 -7.8573782e-001 8.65e-003 1.41e+002  -1.3 7.58e+000    -  1.00e+000 3.69e-001h  1
  29 -3.2804844e-001 1.72e-002 7.02e+001  -1.3 1.45e+001    -  1.00e+000 1.00e+000h  1
iter    objective    inf_pr   inf_du lg(mu)  ||d||  lg(rg) alpha_du alpha_pr  ls
  30 -2.2266654e+000 4.25e-004 1.04e+002  -1.3 2.63e+001    -  1.00e+000 1.00e+000H  1
  31 -2.6080287e+000 1.20e-002 1.19e+002  -1.3 7.52e+000    -  1.00e+000 1.00e+000h  1
  32 -2.1191758e+000 3.42e-002 1.57e+002  -1.3 8.13e+000    -  1.00e+000 1.00e+000h  1
  33 -2.3038785e+000 1.77e-002 3.15e+001  -1.3 7.24e+000    -  1.00e+000 1.00e+000h  1
  34 -2.4368933e+000 1.32e-002 8.01e+001  -1.3 1.51e+001    -  1.00e+000 2.50e-001h  3
  35 -2.8164321e+000 3.07e-003 6.18e+001  -1.3 9.79e+000    -  1.00e+000 1.00e+000H  1
  36 -2.8018459e+000 1.61e-002 7.89e+001  -1.3 1.03e+001    -  1.00e+000 1.00e+000h  1
  37 -2.5489804e+000 3.25e-003 1.86e+001  -1.3 2.02e+001    -  1.00e+000 1.00e+000H  1
  38 -2.5380049e+000 5.83e-004 1.22e+001  -1.3 6.93e+000    -  1.00e+000 1.00e+000h  1
  39 -2.7100913e+000 2.40e-003 1.87e+002  -1.3 5.63e+000    -  1.00e+000 1.00e+000h  1
iter    objective    inf_pr   inf_du lg(mu)  ||d||  lg(rg) alpha_du alpha_pr  ls
  40 -2.6488516e+000 1.42e-002 1.65e+002  -1.3 4.29e+000    -  1.00e+000 1.00e+000h  1
  41 -2.3360076e+000 1.21e-002 3.44e+001  -1.3 2.75e+000    -  1.00e+000 1.00e+000h  1
  42 -2.4298514e+000 6.07e-003 1.33e+002  -1.3 6.16e+000    -  1.00e+000 5.00e-001h  2
  43 -2.6593101e+000 1.84e-003 1.26e+002  -1.3 4.02e+000    -  1.00e+000 1.00e+000H  1
  44 -2.6879132e+000 4.44e-003 5.93e+001  -1.3 7.17e+000    -  1.00e+000 2.50e-001h  3
  45 -2.6872210e+000 2.18e-003 4.56e+001  -1.3 3.69e+000    -  1.00e+000 1.00e+000h  1
  46 -2.6772099e+000 3.60e-005 2.80e+000  -1.3 3.78e+000    -  1.00e+000 1.00e+000h  1
  47 -5.4717900e+000 2.56e-003 1.71e+001  -1.8 4.25e+000    -  9.93e-001 1.00e+000h  1
  48 -1.3691634e+001 7.19e-003 5.12e+001  -2.2 8.53e+000    -  1.00e+000 7.50e-001h  1
  49 -2.4496759e+001 4.75e-002 8.56e+001  -2.3 2.53e+001    -  1.00e+000 1.00e+000h  1
iter    objective    inf_pr   inf_du lg(mu)  ||d||  lg(rg) alpha_du alpha_pr  ls
  50 -2.4616636e+001 2.52e-002 3.97e+001  -2.3 1.67e+001    -  1.00e+000 1.00e+000h  1
  51 -2.5644216e+001 5.09e-002 7.00e+000  -2.3 1.96e+001    -  1.00e+000 1.00e+000h  1
  52 -2.4946981e+001 1.04e-001 6.42e+000  -2.3 5.97e+001    -  1.00e+000 1.00e+000h  1
  53 -2.5507709e+001 1.11e-001 1.82e+001  -2.3 2.83e+001    -  9.14e-001 1.00e+000h  1
  54 -2.5721647e+001 3.49e-003 7.47e+000  -2.3 9.01e+000    -  1.00e+000 1.00e+000h  1
  55 -2.5852992e+001 2.48e-002 2.11e+001  -2.3 1.08e+001    -  1.00e+000 1.00e+000h  1
  56 -2.6613133e+001 2.13e-002 1.77e+001  -2.3 3.44e+001    -  5.24e-001 7.93e-001h  1
  57 -2.6630442e+001 3.50e-002 4.70e+000  -2.3 2.03e+001    -  1.00e+000 1.00e+000h  1
  58 -2.6549209e+001 7.70e-004 2.00e+001  -2.3 6.91e+000    -  9.54e-001 1.00e+000h  1
  59 -2.6836940e+001 9.45e-003 2.92e+000  -2.3 5.32e+000    -  1.00e+000 1.00e+000h  1
iter    objective    inf_pr   inf_du lg(mu)  ||d||  lg(rg) alpha_du alpha_pr  ls
  60 -2.6861616e+001 1.35e-004 4.17e+000  -2.3 5.30e+000    -  1.00e+000 1.00e+000h  1
  61 -2.6956502e+001 4.72e-004 1.54e+001  -2.3 3.75e+000    -  1.00e+000 1.00e+000h  1
  62 -2.6827277e+001 6.23e-003 4.73e+000  -2.3 1.33e+001    -  7.37e-001 4.75e-001h  2
  63 -2.6871418e+001 4.67e-003 7.78e+000  -2.3 1.82e+001    -  8.09e-001 2.50e-001h  3
  64 -2.7215648e+001 2.30e-003 3.77e+000  -2.3 5.13e+000    -  1.00e+000 1.00e+000h  1
  65 -2.7095056e+001 4.47e-003 1.42e+000  -2.3 4.59e+000    -  1.00e+000 1.00e+000h  1
  66 -2.6944687e+001 3.50e-004 1.45e+000  -2.3 2.88e+000    -  1.00e+000 1.00e+000h  1
  67 -2.7068073e+001 3.77e-003 2.38e+001  -2.3 2.35e+000    -  1.00e+000 1.00e+000h  1
  68 -2.7106521e+001 3.73e-003 8.32e+000  -2.3 2.13e+000    -  1.00e+000 1.00e+000h  1
  69 -2.7072079e+001 2.21e-002 2.40e+001  -2.3 6.86e+000    -  1.00e+000 1.00e+000h  1
iter    objective    inf_pr   inf_du lg(mu)  ||d||  lg(rg) alpha_du alpha_pr  ls
  70 -2.7266480e+001 1.96e-002 3.09e+001  -2.3 7.47e+000    -  1.00e+000 1.00e+000h  1
  71 -2.6934288e+001 3.32e-002 5.06e+000  -2.3 1.62e+001    -  1.00e+000 1.00e+000h  1
  72 -2.7698177e+001 5.61e-002 1.50e+001  -2.3 2.66e+001    -  6.55e-001 8.44e-001h  1
  73 -2.7513753e+001 4.20e-002 1.08e+001  -2.3 2.35e+001    -  1.00e+000 2.50e-001h  3
  74 -2.6750521e+001 7.80e-002 1.03e+001  -2.3 1.79e+001    -  3.89e-001 1.00e+000h  1
  75 -2.7237749e+001 3.90e-002 9.76e+000  -2.3 3.91e+001    -  1.00e+000 5.00e-001h  2
  76 -2.7253361e+001 4.43e-002 6.76e+000  -2.3 1.84e+001    -  9.53e-001 4.32e-001h  2
  77 -2.7230550e+001 4.15e-002 1.16e+001  -2.3 1.35e+001    -  1.00e+000 6.25e-002h  5
  78 -2.7223376e+001 4.02e-002 1.20e+001  -2.3 1.46e+001    -  1.00e+000 3.12e-002h  6
  79 -2.7228935e+001 3.89e-002 1.20e+001  -2.3 1.78e+001    -  1.00e+000 3.12e-002h  6
iter    objective    inf_pr   inf_du lg(mu)  ||d||  lg(rg) alpha_du alpha_pr  ls
  80 -2.7225100e+001 3.65e-002 1.16e+001  -2.3 2.73e+001    -  8.99e-001 6.25e-002h  5
  81 -2.6883189e+001 3.27e-003 1.60e+001  -2.3 2.32e+001    -  8.03e-001 1.00e+000H  1
  82 -2.7117347e+001 6.05e-002 6.26e+000  -2.3 7.78e+000    -  1.00e+000 1.00e+000h  1
  83 -2.7237838e+001 7.37e-003 1.32e+001  -2.3 3.20e+001    -  1.00e+000 1.00e+000H  1
  84 -2.7541476e+001 3.03e-002 2.82e+000  -2.3 9.46e+000    -  1.00e+000 1.00e+000h  1
  85 -2.7310557e+001 3.56e-005 1.57e+000  -2.3 1.98e+001    -  1.00e+000 1.00e+000H  1
  86 -2.7449262e+001 3.67e-003 6.06e+000  -2.3 1.98e+001    -  1.00e+000 5.00e-001h  2
  87 -2.7533807e+001 4.16e-003 1.19e+001  -2.3 9.51e+000    -  1.00e+000 1.00e+000h  1
  88 -2.7533800e+001 4.16e-003 1.21e+001  -2.3 1.78e+001    -  1.00e+000 1.53e-005h 17
  89r-2.7533800e+001 4.16e-003 1.00e+003  -0.7 0.00e+000    -  0.00e+000 4.77e-007R 22
iter    objective    inf_pr   inf_du lg(mu)  ||d||  lg(rg) alpha_du alpha_pr  ls
  90r-2.7516127e+001 4.06e-003 8.85e+002  -1.5 2.86e+002    -  8.66e-001 9.90e-004f  1
  91 -2.7512012e+001 3.76e-003 2.25e+003  -2.3 1.45e+000    -  5.73e-001 6.05e-002h  1
  92 -2.7481912e+001 4.16e-002 5.07e+002  -2.3 3.65e+000    -  7.47e-001 1.00e+000h  1
  93 -2.7321433e+001 1.01e-002 1.03e+002  -2.3 2.73e+000    -  8.85e-001 1.00e+000H  1
  94 -2.8758272e+001 1.84e-002 6.59e+000  -2.4 1.06e+000    -  9.57e-001 1.00e+000h  1
  95 -1.2116107e+001 1.92e-002 1.22e+002  -1.6 2.12e+001    -  8.62e-001 5.39e-001f  1
  96 -1.3243569e+001 4.49e-003 8.56e+001  -1.7 1.49e+001    -  1.00e+000 1.00e+000h  1
  97 -1.3846172e+001 5.98e-002 3.45e+001  -1.7 1.47e+001    -  1.00e+000 1.00e+000h  1
  98 -1.1962450e+001 1.50e-002 8.70e+001  -1.7 1.24e+001    -  1.00e+000 1.00e+000h  1
  99 -1.5243772e+001 3.73e-002 1.27e+001  -1.7 1.28e+001    -  1.00e+000 1.00e+000h  1
iter    objective    inf_pr   inf_du lg(mu)  ||d||  lg(rg) alpha_du alpha_pr  ls
 100 -1.3038294e+001 1.06e-001 4.24e+001  -1.7 2.20e+001    -  4.54e-001 8.94e-001h  1
 101 -1.3200641e+001 5.31e-002 4.57e+001  -1.7 1.73e+001    -  1.00e+000 5.00e-001h  2
 102 -1.3192745e+001 4.98e-002 6.88e+001  -1.7 2.25e+001    -  6.57e-001 6.25e-002h  5
 103 -1.3191963e+001 4.90e-002 8.77e+001  -1.7 2.17e+001    -  1.00e+000 1.56e-002h  7
 104 -1.3192937e+001 4.86e-002 8.84e+001  -1.7 2.35e+001    -  1.00e+000 7.81e-003h  8
 105 -1.2506275e+001 1.70e-003 4.29e+001  -1.7 2.78e+001    -  1.00e+000 1.00e+000H  1
 106 -1.2751411e+001 3.31e-002 6.86e+001  -1.7 1.47e+001    -  1.00e+000 1.00e+000h  1
 107 -1.3594635e+001 5.75e-002 2.82e+001  -1.7 4.22e+001    -  6.23e-001 1.00e+000h  1
 108 -1.3258816e+001 4.31e-002 5.41e+001  -1.7 2.39e+001    -  1.00e+000 2.50e-001h  3
 109 -1.3254457e+001 4.30e-002 7.14e+001  -1.7 3.95e+001    -  1.00e+000 3.91e-003h  9
iter    objective    inf_pr   inf_du lg(mu)  ||d||  lg(rg) alpha_du alpha_pr  ls
 110 -1.1583258e+001 1.17e-004 5.09e+001  -1.7 4.38e+001    -  1.00e+000 1.00e+000H  1
 111 -1.2007321e+001 2.52e-003 2.22e+001  -1.7 2.82e+001    -  1.00e+000 1.00e+000H  1
 112 -1.2503881e+001 1.88e-002 3.94e+001  -1.7 1.78e+001    -  1.00e+000 1.00e+000h  1
 113 -1.2398493e+001 2.10e-002 6.85e+001  -1.7 1.77e+001    -  1.00e+000 4.00e-001h  2
 114 -1.2288888e+001 1.20e-002 1.78e+001  -1.7 2.12e+001    -  6.08e-001 7.50e-001H  1
 115 -1.2035359e+001 6.41e-003 5.72e+001  -1.7 1.92e+001    -  1.00e+000 1.00e+000h  1
 116 -1.2213420e+001 1.92e-002 6.28e+001  -1.7 2.99e+001    -  9.50e-001 5.00e-001h  2
 117 -1.2362423e+001 2.01e-002 2.48e+001  -1.7 2.99e+001    -  7.09e-001 7.39e-001H  1
 118 -1.1883865e+001 1.97e-002 4.69e+001  -1.7 1.83e+001    -  5.41e-001 1.00e+000H  1
 119 -1.2206526e+001 2.23e-002 8.64e+001  -1.7 1.84e+001    -  1.00e+000 5.00e-001h  2
iter    objective    inf_pr   inf_du lg(mu)  ||d||  lg(rg) alpha_du alpha_pr  ls
 120 -1.2225509e+001 1.82e-002 2.57e+001  -1.7 2.39e+001    -  1.00e+000 5.00e-001h  2
 121 -1.1958299e+001 3.54e-003 4.32e+000  -1.7 1.24e+001    -  1.00e+000 1.00e+000h  1
 122 -1.1958465e+001 2.20e-003 7.51e+001  -1.7 3.71e+001    -  1.00e+000 1.00e+000H  1
 123 -1.2420433e+001 2.87e-002 5.08e+001  -1.7 1.39e+001    -  1.00e+000 1.00e+000h  1
 124 -1.2905816e+001 1.04e-001 2.14e+001  -1.7 4.52e+001    -  7.78e-001 1.00e+000h  1
 125 -1.2870201e+001 9.80e-002 4.34e+001  -1.7 2.58e+001    -  1.00e+000 6.25e-002h  5
 126 -1.2807804e+001 5.52e-002 2.51e+001  -1.7 1.82e+001    -  1.00e+000 4.59e-001h  2
 127 -1.2576277e+001 2.76e-002 2.30e+001  -1.7 2.01e+001    -  1.00e+000 5.00e-001h  2
 128 -1.2508096e+001 2.07e-002 3.43e+001  -1.7 2.08e+001    -  1.00e+000 2.50e-001h  3
 129 -1.2688799e+001 1.34e-002 4.30e+001  -1.7 1.79e+001    -  1.00e+000 5.00e-001h  2
iter    objective    inf_pr   inf_du lg(mu)  ||d||  lg(rg) alpha_du alpha_pr  ls
 130 -1.2668343e+001 1.00e-001 3.36e+001  -1.7 3.29e+001    -  1.00e+000 1.00e+000h  1
 131 -1.2095908e+001 7.13e-002 7.64e+001  -1.7 3.32e+001    -  1.00e+000 1.00e+000h  1
 132 -1.2997596e+001 9.42e-002 1.29e+001  -1.7 3.77e+001    -  7.07e-001 1.00e+000h  1
 133 -1.1415831e+001 7.98e-004 2.76e+001  -1.7 6.29e+001    -  1.00e+000 1.00e+000H  1
 134 -1.1604898e+001 4.27e-003 4.45e+001  -1.7 4.87e+001    -  1.00e+000 1.00e+000H  1
 135 -1.1317170e+001 1.50e-002 1.16e+002  -1.7 4.16e+001    -  1.00e+000 1.00e+000H  1
 136 -1.1287168e+001 1.24e-002 4.22e+001  -1.7 1.41e+001    -  1.00e+000 1.00e+000H  1
 137 -1.1441885e+001 2.59e-003 4.45e+001  -1.7 2.58e+001    -  1.00e+000 1.00e+000H  1
 138 -1.2140159e+001 7.58e-002 3.85e+001  -1.7 4.50e+001    -  8.26e-001 1.00e+000h  1
 139 -1.2036784e+001 4.00e-002 6.52e+000  -1.7 3.36e+001    -  1.00e+000 1.00e+000h  1
iter    objective    inf_pr   inf_du lg(mu)  ||d||  lg(rg) alpha_du alpha_pr  ls
 140 -1.2116130e+001 2.00e-002 4.64e+001  -1.7 4.03e+001    -  1.00e+000 5.00e-001h  2
 141 -1.2136438e+001 2.76e-002 1.65e+001  -1.7 8.34e+000    -  1.00e+000 1.00e+000h  1
 142 -1.1974372e+001 1.45e-004 1.26e+001  -1.7 5.02e+000    -  1.00e+000 1.00e+000h  1
 143 -1.1847652e+001 1.72e-003 4.63e+001  -1.7 9.72e+000    -  1.00e+000 1.00e+000H  1
 144 -1.2034893e+001 2.61e-002 1.69e+001  -1.7 6.01e+000    -  1.00e+000 1.00e+000h  1
 145 -1.1964826e+001 1.38e-004 1.11e+001  -1.7 1.27e+001    -  1.00e+000 1.00e+000H  1
 146 -1.4896762e+001 3.60e-003 4.39e+000  -2.0 2.97e+000    -  1.00e+000 1.00e+000h  1
 147 -2.1793984e+001 4.81e-003 1.41e+001  -2.1 1.03e+001    -  1.00e+000 1.00e+000h  1
 148 -2.2599986e+001 4.27e-003 2.97e+001  -2.1 6.34e+000    -  1.00e+000 1.00e+000h  1
 149 -2.1606915e+001 1.32e-002 9.49e+000  -2.1 4.44e+000    -  1.00e+000 1.00e+000h  1
iter    objective    inf_pr   inf_du lg(mu)  ||d||  lg(rg) alpha_du alpha_pr  ls
 150 -2.2322319e+001 3.95e-003 1.43e+001  -2.1 2.03e+000    -  1.00e+000 1.00e+000h  1

Number of Iterations....: 150

                                   (scaled)                 (unscaled)
Objective...............: -1.7719357808949756e+000  -2.2322318951012846e+001
Dual infeasibility......:  1.4254634084764426e+001   1.7957563248109071e+002
Constraint violation....:  3.9505270869765645e-003   3.9505270869765645e-003
Complementarity.........:  7.2367760497254003e-003   9.1166748197516037e-002
Overall NLP error.......:  1.4254634084764426e+001   1.7957563248109071e+002


Number of objective function evaluations             = 340
Number of objective gradient evaluations             = 151
Number of equality constraint evaluations            = 340
Number of inequality constraint evaluations          = 340
Number of equality constraint Jacobian evaluations   = 152
Number of inequality constraint Jacobian evaluations = 152
Number of Lagrangian Hessian evaluations             = 0
Total CPU secs in IPOPT (w/o function evaluations)   =     29.905
Total CPU secs in NLP function evaluations           =   1348.750

EXIT: Maximum Number of Iterations Exceeded.
